GLPSOL--GLPK LP/MIP Solver 5.0
Parameter(s) specified in the command line:
 --lp ./Instances/small/optimizedinstance41.lp -o ./Instances/small/solutions/optimizedinstance41.out
 --log ./Instances/small/solutions/optimizedinstance41.glplog
Reading problem data from './Instances/small/optimizedinstance41.lp'...
372 rows, 375 columns, 38683 non-zeros
375 integer variables, all of which are binary
752 lines were read
GLPK Integer Optimizer 5.0
372 rows, 375 columns, 38683 non-zeros
375 integer variables, all of which are binary
Preprocessing...
372 rows, 375 columns, 38683 non-zeros
375 integer variables, all of which are binary
Scaling...
 A: min|aij| =  1.000e+00  max|aij| =  2.400e+02  ratio =  2.400e+02
GM: min|aij| =  6.468e-02  max|aij| =  1.546e+01  ratio =  2.390e+02
EQ: min|aij| =  4.193e-03  max|aij| =  1.000e+00  ratio =  2.385e+02
2N: min|aij| =  3.906e-03  max|aij| =  1.469e+00  ratio =  3.760e+02
Constructing initial basis...
Size of triangular part is 372
Solving LP relaxation...
GLPK Simplex Optimizer 5.0
372 rows, 375 columns, 38683 non-zeros
*     0: obj =  -0.000000000e+00 inf =   0.000e+00 (375)
*   318: obj =   2.327763835e+03 inf =   0.000e+00 (0) 1
OPTIMAL LP SOLUTION FOUND
Integer optimization begins...
Long-step dual simplex will be used
+   318: mip =     not found yet <=              +inf        (1; 0)
+   711: >>>>>   8.200000000e+01 <=   2.303000000e+03        (76; 0)
+  2683: mip =   8.200000000e+01 <=   2.264000000e+03        (345; 8)
+  4313: mip =   8.200000000e+01 <=   2.259000000e+03        (643; 13)
+  5610: mip =   8.200000000e+01 <=   2.239000000e+03        (904; 16)
+  5773: >>>>>   8.400000000e+01 <=   2.239000000e+03        (968; 16)
+  7628: mip =   8.400000000e+01 <=   2.201000000e+03        (1238; 24)
+  9412: mip =   8.400000000e+01 <=   2.179000000e+03        (1551; 29)
+ 10542: >>>>>   9.400000000e+01 <=   2.165000000e+03        (1758; 32)
+ 11570: mip =   9.400000000e+01 <=   2.141000000e+03        (1979; 78)
+ 11958: >>>>>   9.900000000e+01 <=   2.140000000e+03        (2051; 79)
+ 13857: mip =   9.900000000e+01 <=   2.123000000e+03        (2353; 114)
+ 15489: mip =   9.900000000e+01 <=   2.097000000e+03        (2617; 119)
+ 17016: mip =   9.900000000e+01 <=   2.080000000e+03        (2911; 124)
+ 18708: mip =   9.900000000e+01 <=   2.043000000e+03        (3212; 129)
Time used: 60.0 secs.  Memory used: 8.9 Mb.
+ 20757: mip =   9.900000000e+01 <=   1.994000000e+03        (3546; 136)
+ 22003: mip =   9.900000000e+01 <=   1.965000000e+03        (3840; 140)
+ 23518: mip =   9.900000000e+01 <=   1.939000000e+03        (4118; 145)
+ 24757: mip =   9.900000000e+01 <=   1.926000000e+03        (4432; 149)
+ 26464: mip =   9.900000000e+01 <=   1.897000000e+03        (4757; 155)
+ 28023: mip =   9.900000000e+01 <=   1.850000000e+03        (5065; 161)
+ 29396: mip =   9.900000000e+01 <=   1.823000000e+03        (5382; 165)
+ 31489: mip =   9.900000000e+01 <=   1.760000000e+03        (5695; 173)
+ 33001: mip =   9.900000000e+01 <=   1.747000000e+03        (6009; 178)
+ 34307: mip =   9.900000000e+01 <=   1.705000000e+03        (6326; 183)
+ 35758: mip =   9.900000000e+01 <=   1.661000000e+03        (6672; 189)
+ 37395: mip =   9.900000000e+01 <=   1.637000000e+03        (7012; 196)
Time used: 120.0 secs.  Memory used: 11.9 Mb.
+ 38625: mip =   9.900000000e+01 <=   1.628000000e+03        (7335; 201)
+ 40060: mip =   9.900000000e+01 <=   1.611000000e+03        (7647; 207)
+ 41761: mip =   9.900000000e+01 <=   1.602000000e+03        (8045; 215)
+ 43439: mip =   9.900000000e+01 <=   1.590000000e+03        (8410; 222)
+ 44836: mip =   9.900000000e+01 <=   1.572000000e+03        (8806; 229)
+ 46012: mip =   9.900000000e+01 <=   1.568000000e+03        (9147; 234)
+ 47525: mip =   9.900000000e+01 <=   1.558000000e+03        (9496; 241)
+ 49232: mip =   9.900000000e+01 <=   1.549000000e+03        (9842; 249)
+ 50737: mip =   9.900000000e+01 <=   1.540000000e+03        (10228; 256)
+ 52411: mip =   9.900000000e+01 <=   1.527000000e+03        (10578; 264)
+ 53816: mip =   9.900000000e+01 <=   1.516000000e+03        (10939; 271)
+ 55657: mip =   9.900000000e+01 <=   1.506000000e+03        (11288; 280)
Time used: 180.0 secs.  Memory used: 15.1 Mb.
+ 56941: mip =   9.900000000e+01 <=   1.500000000e+03        (11647; 286)
+ 58290: mip =   9.900000000e+01 <=   1.496000000e+03        (11989; 292)
+ 59743: mip =   9.900000000e+01 <=   1.485000000e+03        (12339; 299)
+ 61734: mip =   9.900000000e+01 <=   1.474000000e+03        (12763; 309)
+ 62944: mip =   9.900000000e+01 <=   1.471000000e+03        (13101; 315)
+ 64323: mip =   9.900000000e+01 <=   1.464000000e+03        (13456; 322)
+ 66122: mip =   9.900000000e+01 <=   1.456000000e+03        (13862; 331)
+ 67782: mip =   9.900000000e+01 <=   1.446000000e+03        (14288; 340)
+ 69452: mip =   9.900000000e+01 <=   1.441000000e+03        (14712; 349)
+ 71035: mip =   9.900000000e+01 <=   1.432000000e+03        (15078; 357)
+ 72216: mip =   9.900000000e+01 <=   1.428000000e+03        (15444; 363)
+ 73358: mip =   9.900000000e+01 <=   1.423000000e+03        (15824; 369)
Time used: 240.0 secs.  Memory used: 18.2 Mb.
+ 74804: mip =   9.900000000e+01 <=   1.419000000e+03        (16203; 377)
+ 75748: mip =   9.900000000e+01 <=   1.419000000e+03        (16553; 382)
+ 77040: mip =   9.900000000e+01 <=   1.416000000e+03        (16982; 389)
+ 79068: mip =   9.900000000e+01 <=   1.410000000e+03        (17349; 400)
+ 80906: mip =   9.900000000e+01 <=   1.405000000e+03        (17715; 410)
+ 82187: mip =   9.900000000e+01 <=   1.402000000e+03        (18094; 417)
+ 83630: mip =   9.900000000e+01 <=   1.398000000e+03        (18507; 425)
+ 85500: mip =   9.900000000e+01 <=   1.393000000e+03        (18854; 436)
+ 86963: mip =   9.900000000e+01 <=   1.390000000e+03        (19300; 444)
+ 88444: mip =   9.900000000e+01 <=   1.387000000e+03        (19673; 453)
+ 89919: mip =   9.900000000e+01 <=   1.384000000e+03        (20027; 460)
+ 91493: mip =   9.900000000e+01 <=   1.382000000e+03        (20434; 470)
Time used: 300.0 secs.  Memory used: 21.8 Mb.
+ 93084: mip =   9.900000000e+01 <=   1.377000000e+03        (20828; 478)
+ 94869: mip =   9.900000000e+01 <=   1.372000000e+03        (21200; 488)
+ 96274: mip =   9.900000000e+01 <=   1.370000000e+03        (21546; 496)
+ 97902: mip =   9.900000000e+01 <=   1.365000000e+03        (21943; 505)
+ 99604: mip =   9.900000000e+01 <=   1.359000000e+03        (22317; 514)
+100977: mip =   9.900000000e+01 <=   1.354000000e+03        (22719; 522)
+102528: mip =   9.900000000e+01 <=   1.349000000e+03        (23113; 531)
+104108: mip =   9.900000000e+01 <=   1.344000000e+03        (23529; 540)
+105786: mip =   9.900000000e+01 <=   1.340000000e+03        (23946; 550)
+107487: mip =   9.900000000e+01 <=   1.335000000e+03        (24354; 560)
+109108: mip =   9.900000000e+01 <=   1.332000000e+03        (24744; 569)
+110319: mip =   9.900000000e+01 <=   1.329000000e+03        (25168; 576)
Time used: 360.1 secs.  Memory used: 25.0 Mb.
+111948: mip =   9.900000000e+01 <=   1.327000000e+03        (25572; 586)
+113404: mip =   9.900000000e+01 <=   1.323000000e+03        (25959; 595)
+115396: mip =   9.900000000e+01 <=   1.320000000e+03        (26415; 607)
+117268: mip =   9.900000000e+01 <=   1.317000000e+03        (26885; 619)
+119068: mip =   9.900000000e+01 <=   1.312000000e+03        (27283; 630)
+120622: mip =   9.900000000e+01 <=   1.309000000e+03        (27691; 639)
+122006: mip =   9.900000000e+01 <=   1.307000000e+03        (28088; 647)
+123674: mip =   9.900000000e+01 <=   1.305000000e+03        (28494; 657)
+125348: mip =   9.900000000e+01 <=   1.302000000e+03        (28893; 667)
+126846: mip =   9.900000000e+01 <=   1.298000000e+03        (29334; 676)
+128294: mip =   9.900000000e+01 <=   1.294000000e+03        (29742; 684)
+129665: mip =   9.900000000e+01 <=   1.292000000e+03        (30119; 692)
Time used: 420.1 secs.  Memory used: 28.2 Mb.
+130964: mip =   9.900000000e+01 <=   1.290000000e+03        (30546; 701)
+132088: mip =   9.900000000e+01 <=   1.288000000e+03        (30902; 707)
+133549: mip =   9.900000000e+01 <=   1.285000000e+03        (31311; 716)
+134892: mip =   9.900000000e+01 <=   1.282000000e+03        (31734; 724)
+136578: mip =   9.900000000e+01 <=   1.279000000e+03        (32167; 735)
+138173: mip =   9.900000000e+01 <=   1.277000000e+03        (32605; 745)
+139429: mip =   9.900000000e+01 <=   1.274000000e+03        (33029; 753)
+140979: mip =   9.900000000e+01 <=   1.273000000e+03        (33423; 763)
+142188: mip =   9.900000000e+01 <=   1.271000000e+03        (33830; 770)
+143904: mip =   9.900000000e+01 <=   1.268000000e+03        (34258; 781)
+145657: mip =   9.900000000e+01 <=   1.267000000e+03        (34696; 792)
+147714: mip =   9.900000000e+01 <=   1.264000000e+03        (35161; 805)
Time used: 480.1 secs.  Memory used: 31.4 Mb.
+149132: mip =   9.900000000e+01 <=   1.262000000e+03        (35614; 814)
+150597: mip =   9.900000000e+01 <=   1.261000000e+03        (36000; 824)
+151981: mip =   9.900000000e+01 <=   1.258000000e+03        (36389; 832)
+153476: mip =   9.900000000e+01 <=   1.256000000e+03        (36805; 842)
+154803: mip =   9.900000000e+01 <=   1.255000000e+03        (37201; 850)
+155928: mip =   9.900000000e+01 <=   1.253000000e+03        (37591; 857)
+157147: mip =   9.900000000e+01 <=   1.251000000e+03        (37991; 865)
+158447: mip =   9.900000000e+01 <=   1.249000000e+03        (38380; 873)
+160108: mip =   9.900000000e+01 <=   1.247000000e+03        (38823; 883)
+161402: mip =   9.900000000e+01 <=   1.245000000e+03        (39267; 892)
+163170: mip =   9.900000000e+01 <=   1.243000000e+03        (39685; 902)
+165250: mip =   9.900000000e+01 <=   1.241000000e+03        (40116; 916)
Time used: 540.1 secs.  Memory used: 34.4 Mb.
+166763: mip =   9.900000000e+01 <=   1.239000000e+03        (40520; 926)
+168383: mip =   9.900000000e+01 <=   1.237000000e+03        (40953; 936)
+170427: mip =   9.900000000e+01 <=   1.233000000e+03        (41403; 950)
